#######################



#######################
Set parameter TimeLimit to value 300
Set parameter SoftMemLimit to value 125
Set parameter MIPFocus to value 3
Set parameter LogFile to value 1003-MIPFocus3-Presolve1-TimeLimit300-k16x240-5.log
Set parameter Presolve to value 1
Set parameter Seed to value 5
Using license file /opt/gurobi/gurobi.lic

Gurobi Optimizer version 10.0.3 build v10.0.3rc0 (linux64)
Copyright (c) 2023, Gurobi Optimization, LLC

Read MPS format model from file /miplib2010/k16x240.mps.bz2
Reading time = 0.00 seconds
k16x240: 256 rows, 480 columns, 960 nonzeros

CPU model: Intel(R) Xeon(R) E-2388G CPU @ 3.20GHz, instruction set [SSE2|AVX|AVX2|AVX512]
Thread count: 8 physical cores, 16 logical processors, using up to 16 threads

Optimize a model with 256 rows, 480 columns and 960 nonzeros
Model fingerprint: 0x4e80885f
Variable types: 240 continuous, 240 integer (240 binary)
Coefficient statistics:
  Matrix range     [1e+00, 1e+03]
  Objective range  [1e+00, 1e+03]
  Bounds range     [1e+00, 1e+03]
  RHS range        [4e+00, 4e+02]
Found heuristic solution: objective 27987.000000
Presolve time: 0.00s
Presolved: 256 rows, 480 columns, 960 nonzeros
Variable types: 240 continuous, 240 integer (240 binary)

Root relaxation: objective 2.769838e+03, 51 iterations, 0.00 seconds (0.00 work units)

    Nodes    |    Current Node    |     Objective Bounds      |     Work
 Expl Unexpl |  Obj  Depth IntInf | Incumbent    BestBd   Gap | It/Node Time

     0     0 2769.83800    0   14 27987.0000 2769.83800  90.1%     -    0s
H    0     0                    11359.000000 2769.83800  75.6%     -    0s
H    0     0                    11195.000000 2769.83800  75.3%     -    0s
H    0     0                    11074.000000 8116.87580  26.7%     -    0s
H    0     0                    10916.000000 8116.87580  25.6%     -    0s
     0     0 8116.87580    0   26 10916.0000 8116.87580  25.6%     -    0s
H    0     0                    10826.000000 8116.87580  25.0%     -    0s
H    0     0                    10806.000000 8741.20226  19.1%     -    0s
     0     0 8896.08201    0   28 10806.0000 8896.08201  17.7%     -    0s
H    0     0                    10746.000000 8896.08201  17.2%     -    0s
     0     0 9002.99257    0   22 10746.0000 9002.99257  16.2%     -    0s
     0     0 9085.31859    0   36 10746.0000 9085.31859  15.5%     -    0s
     0     0 9085.31859    0   36 10746.0000 9085.31859  15.5%     -    0s
     0     0 9085.31859    0   39 10746.0000 9085.31859  15.5%     -    0s
     0     0 9162.22054    0   33 10746.0000 9162.22054  14.7%     -    0s
     0     0 9187.03348    0   31 10746.0000 9187.03348  14.5%     -    0s
     0     0 9205.79132    0   35 10746.0000 9205.79132  14.3%     -    0s
     0     0 9205.79132    0   35 10746.0000 9205.79132  14.3%     -    0s
     0     2 9205.79132    0   35 10746.0000 9205.79132  14.3%     -    0s
H   32    40                    10674.000000 9320.64889  12.7%  68.8    0s
  3933  2967 10565.3827   28   40 10674.0000 10265.0310  3.83%  93.1    5s
 13865  8244     cutoff   26      10674.0000 10454.5567  2.06%  72.6   10s
 51561   486     cutoff   28      10674.0000 10670.4421  0.03%  39.1   15s

Cutting planes:
  Gomory: 1
  Lift-and-project: 9
  Cover: 1
  Implied bound: 12
  MIR: 122
  Flow cover: 510
  Flow path: 31
  Zero half: 38
  Network: 26
  Relax-and-lift: 5

Explored 52043 nodes (2018410 simplex iterations) in 15.02 seconds (19.27 work units)
Thread count was 16 (of 16 available processors)

Solution count 9: 10674 10746 10806 ... 27987

Optimal solution found (tolerance 1.00e-04)
Best objective 1.067400000000e+04, best bound 1.067298584140e+04, gap 0.0095%
